
Gurobi 10.0.1 (mac64[arm]) logging started Fri Sep 22 17:25:25 2023

Set parameter LogFile to value "results/scenario_returns/returns_gamma/M_j_c_-50/mip_log.txt"
Gurobi Optimizer version 10.0.1 build v10.0.1rc0 (mac64[arm])

CPU model: Apple M1
Thread count: 8 physical cores, 8 logical processors, using up to 8 threads

Optimize a model with 1724 rows, 6293 columns and 24662 nonzeros
Model fingerprint: 0x57f3c441
Model has 8978 general constraints
Variable types: 1 continuous, 6292 integer (408 binary)
Coefficient statistics:
  Matrix range     [6e-02, 3e+05]
  Objective range  [9e-02, 2e+05]
  Bounds range     [1e+00, 2e+07]
  RHS range        [2e+03, 2e+04]
  GenCon rhs range [1e+00, 1e+00]
  GenCon coe range [1e+00, 1e+00]
Presolve removed 124 rows and 556 columns
Presolve time: 0.10s
Presolved: 1600 rows, 5737 columns, 22948 nonzeros
Presolved model has 4 SOS constraint(s)
Variable types: 0 continuous, 5737 integer (34 binary)

Root relaxation: objective 6.534135e+07, 6551 iterations, 0.06 seconds (0.08 work units)

    Nodes    |    Current Node    |     Objective Bounds      |     Work
 Expl Unexpl |  Obj  Depth IntInf | Incumbent    BestBd   Gap | It/Node Time

     0     0 6.5341e+07    0  371          - 6.5341e+07      -     -    0s
     0     0 6.5612e+07    0  723          - 6.5612e+07      -     -    0s
     0     0 6.5616e+07    0  829          - 6.5616e+07      -     -    0s
     0     0 6.5617e+07    0  883          - 6.5617e+07      -     -    0s
     0     0 6.5617e+07    0  882          - 6.5617e+07      -     -    0s
H    0     0                    7.039610e+07 6.6562e+07  5.45%     -    0s
H    0     0                    6.881291e+07 6.6562e+07  3.27%     -    0s
     0     0 6.6562e+07    0  715 6.8813e+07 6.6562e+07  3.27%     -    0s
     0     0 6.6564e+07    0  597 6.8813e+07 6.6564e+07  3.27%     -    0s
     0     0 6.6584e+07    0  545 6.8813e+07 6.6584e+07  3.24%     -    0s
H    0     0                    6.879625e+07 6.6945e+07  2.69%     -    0s
     0     0 6.6945e+07    0  648 6.8796e+07 6.6945e+07  2.69%     -    0s
     0     0 6.6948e+07    0  657 6.8796e+07 6.6948e+07  2.69%     -    0s
     0     0 6.6951e+07    0  658 6.8796e+07 6.6951e+07  2.68%     -    0s
     0     0 6.6989e+07    0 1123 6.8796e+07 6.6989e+07  2.63%     -    0s
     0     0 6.6994e+07    0 1220 6.8796e+07 6.6994e+07  2.62%     -    0s
     0     0 6.6994e+07    0 1237 6.8796e+07 6.6994e+07  2.62%     -    0s
     0     0 6.7017e+07    0  921 6.8796e+07 6.7017e+07  2.59%     -    1s
     0     0 6.7059e+07    0  961 6.8796e+07 6.7059e+07  2.53%     -    1s
     0     0 6.7063e+07    0  964 6.8796e+07 6.7063e+07  2.52%     -    1s
H    0     0                    6.879625e+07 6.7063e+07  2.52%     -    1s
     0     0 6.7102e+07    0 1138 6.8796e+07 6.7102e+07  2.46%     -    1s
     0     0 6.7120e+07    0 1115 6.8796e+07 6.7120e+07  2.44%     -    1s
     0     2 6.7120e+07    0 1107 6.8796e+07 6.7120e+07  2.44%     -    1s
H   76    56                    6.879622e+07 6.7120e+07  2.44%   479    2s
H  424   189                    6.879620e+07 6.7651e+07  1.66%   212    2s
* 1484   261              88    6.879620e+07 6.8624e+07  0.25%   109    3s

Cutting planes:
  Gomory: 1
  Implied bound: 1454
  MIR: 58
  Flow path: 1
  Relax-and-lift: 42

Explored 1650 nodes (181807 simplex iterations) in 3.88 seconds (5.56 work units)
Thread count was 8 (of 8 available processors)

Solution count 7: 6.87962e+07 6.87962e+07 6.87962e+07 ... 7.03961e+07

Optimal solution found (tolerance 1.00e-04)
Best objective 6.879620036200e+07, best bound 6.879619963222e+07, gap 0.0000%

Gurobi 10.0.1 (mac64[arm]) logging started Fri Sep 22 17:57:02 2023

Set parameter LogFile to value "results/scenario_returns/returns_gamma/M_j_c_-50/mip_log.txt"
Gurobi Optimizer version 10.0.1 build v10.0.1rc0 (mac64[arm])

CPU model: Apple M1
Thread count: 8 physical cores, 8 logical processors, using up to 8 threads

Optimize a model with 1694 rows, 6293 columns and 24572 nonzeros
Model fingerprint: 0x3e79cfd4
Model has 8978 general constraints
Variable types: 1 continuous, 6292 integer (408 binary)
Coefficient statistics:
  Matrix range     [6e-02, 3e+05]
  Objective range  [9e-02, 2e+05]
  Bounds range     [1e+00, 2e+07]
  RHS range        [2e+03, 2e+04]
  GenCon rhs range [1e+00, 1e+00]
  GenCon coe range [1e+00, 1e+00]
Presolve removed 67 rows and 502 columns
Presolve time: 0.09s
Presolved: 1627 rows, 5791 columns, 23111 nonzeros
Presolved model has 4 SOS constraint(s)
Variable types: 0 continuous, 5791 integer (34 binary)

Root relaxation: objective 6.212255e+07, 6131 iterations, 0.05 seconds (0.07 work units)

    Nodes    |    Current Node    |     Objective Bounds      |     Work
 Expl Unexpl |  Obj  Depth IntInf | Incumbent    BestBd   Gap | It/Node Time

     0     0 6.2123e+07    0  367          - 6.2123e+07      -     -    0s
H    0     0                    6.914506e+07 6.2198e+07  10.0%     -    0s
     0     0 6.2198e+07    0  699 6.9145e+07 6.2198e+07  10.0%     -    0s
H    0     0                    6.571439e+07 6.2198e+07  5.35%     -    0s
     0     0 6.2206e+07    0  809 6.5714e+07 6.2206e+07  5.34%     -    0s
     0     0 6.2207e+07    0  822 6.5714e+07 6.2207e+07  5.34%     -    0s
     0     0 6.2207e+07    0  812 6.5714e+07 6.2207e+07  5.34%     -    0s
     0     0 6.3675e+07    0 1278 6.5714e+07 6.3675e+07  3.10%     -    0s
     0     0 6.3707e+07    0 1226 6.5714e+07 6.3707e+07  3.05%     -    0s
     0     0 6.3708e+07    0 1227 6.5714e+07 6.3708e+07  3.05%     -    0s
     0     0 6.3855e+07    0 1024 6.5714e+07 6.3855e+07  2.83%     -    0s
     0     0 6.4071e+07    0 1019 6.5714e+07 6.4071e+07  2.50%     -    0s
     0     2 6.4071e+07    0 1016 6.5714e+07 6.4071e+07  2.50%     -    1s
H   35    35                    6.559537e+07 6.4071e+07  2.32%   713    1s
H   37    35                    6.557373e+07 6.4071e+07  2.29%   699    1s
*  313    59              22    6.557373e+07 6.4382e+07  1.82%   334    2s
  1576   775 6.5154e+07   22    3 6.5574e+07 6.5154e+07  0.64%   124    5s
H 7000   485                    6.557373e+07 6.5154e+07  0.64%  59.5    9s

Explored 7421 nodes (445123 simplex iterations) in 9.94 seconds (14.62 work units)
Thread count was 8 (of 8 available processors)

Solution count 6: 6.55737e+07 6.55737e+07 6.55737e+07 ... 6.91451e+07

Optimal solution found (tolerance 1.00e-04)
Best objective 6.557373268400e+07, best bound 6.557373195222e+07, gap 0.0000%

Gurobi 10.0.1 (mac64[arm]) logging started Fri Sep 22 19:36:23 2023

Set parameter LogFile to value "results/scenario_returns/returns_gamma/M_j_c_-50/mip_log.txt"
Gurobi Optimizer version 10.0.1 build v10.0.1rc0 (mac64[arm])

CPU model: Apple M1
Thread count: 8 physical cores, 8 logical processors, using up to 8 threads

Optimize a model with 1694 rows, 6293 columns and 24572 nonzeros
Model fingerprint: 0xeb00b423
Model has 8978 general constraints
Variable types: 1 continuous, 6292 integer (408 binary)
Coefficient statistics:
  Matrix range     [6e-02, 3e+05]
  Objective range  [9e-02, 2e+05]
  Bounds range     [1e+00, 2e+07]
  RHS range        [2e+03, 2e+04]
  GenCon rhs range [1e+00, 1e+00]
  GenCon coe range [1e+00, 1e+00]
Presolve removed 67 rows and 502 columns
Presolve time: 0.07s
Presolved: 1627 rows, 5791 columns, 23173 nonzeros
Presolved model has 4 SOS constraint(s)
Variable types: 0 continuous, 5791 integer (34 binary)

Root relaxation: objective 6.676189e+07, 6076 iterations, 0.05 seconds (0.07 work units)

    Nodes    |    Current Node    |     Objective Bounds      |     Work
 Expl Unexpl |  Obj  Depth IntInf | Incumbent    BestBd   Gap | It/Node Time

     0     0 6.6762e+07    0  247          - 6.6762e+07      -     -    0s
     0     0 6.6893e+07    0  643          - 6.6893e+07      -     -    0s
H    0     0                    7.252874e+07 6.6924e+07  7.73%     -    0s
     0     0 6.7432e+07    0  686 7.2529e+07 6.7432e+07  7.03%     -    0s
     0     0 6.7432e+07    0  795 7.2529e+07 6.7432e+07  7.03%     -    0s
     0     0 6.7432e+07    0  817 7.2529e+07 6.7432e+07  7.03%     -    0s
     0     0 6.7432e+07    0  825 7.2529e+07 6.7432e+07  7.03%     -    0s
     0     0 6.8274e+07    0  931 7.2529e+07 6.8274e+07  5.87%     -    0s
H    0     0                    7.239131e+07 6.8274e+07  5.69%     -    0s
     0     0 6.8463e+07    0 1025 7.2391e+07 6.8463e+07  5.43%     -    0s
     0     0 6.8491e+07    0 1040 7.2391e+07 6.8491e+07  5.39%     -    0s
H    0     0                    7.238026e+07 6.8563e+07  5.27%     -    0s
H    0     0                    7.236626e+07 6.8563e+07  5.26%     -    0s
     0     0 6.8714e+07    0 1154 7.2366e+07 6.8714e+07  5.05%     -    0s
H    0     0                    7.127085e+07 6.8714e+07  3.59%     -    0s
     0     0 6.8778e+07    0 1143 7.1271e+07 6.8778e+07  3.50%     -    0s
H    0     0                    7.096902e+07 6.8778e+07  3.09%     -    1s
H    0     0                    7.043153e+07 6.8778e+07  2.35%     -    1s
     0     2 6.8778e+07    0 1141 7.0432e+07 6.8778e+07  2.35%     -    1s
H   34    38                    7.042692e+07 6.8778e+07  2.34%  1161    1s
H   82    56                    7.040794e+07 6.8778e+07  2.31%   785    2s
*  288    13               6    7.040708e+07 6.9135e+07  1.81%   592    4s

Cutting planes:
  Gomory: 4
  Implied bound: 1121
  MIR: 92
  Flow path: 1
  Inf proof: 1
  Relax-and-lift: 58

Explored 336 nodes (193634 simplex iterations) in 4.25 seconds (6.67 work units)
Thread count was 8 (of 8 available processors)

Solution count 10: 7.04071e+07 7.04079e+07 7.04269e+07 ... 7.25287e+07

Optimal solution found (tolerance 1.00e-04)
Best objective 7.040707899000e+07, best bound 7.040606892563e+07, gap 0.0014%
Discarded solution information

Gurobi 10.0.1 (mac64[arm]) logging started Sat Sep 23 13:17:55 2023

Set parameter LogFile to value "results/scenario_returns/returns_gamma/M_j_c_-50/mip_log.txt"
Gurobi Optimizer version 10.0.1 build v10.0.1rc0 (mac64[arm])

CPU model: Apple M1
Thread count: 8 physical cores, 8 logical processors, using up to 8 threads

Optimize a model with 1694 rows, 6293 columns and 24572 nonzeros
Model fingerprint: 0xeb00b423
Model has 8978 general constraints
Variable types: 1 continuous, 6292 integer (408 binary)
Coefficient statistics:
  Matrix range     [6e-02, 3e+05]
  Objective range  [9e-02, 2e+05]
  Bounds range     [1e+00, 2e+07]
  RHS range        [2e+03, 2e+04]
  GenCon rhs range [1e+00, 1e+00]
  GenCon coe range [1e+00, 1e+00]
Presolve removed 67 rows and 502 columns
Presolve time: 0.07s
Presolved: 1627 rows, 5791 columns, 23173 nonzeros
Presolved model has 4 SOS constraint(s)
Variable types: 0 continuous, 5791 integer (34 binary)

Root relaxation: objective 6.676189e+07, 6076 iterations, 0.05 seconds (0.07 work units)

    Nodes    |    Current Node    |     Objective Bounds      |     Work
 Expl Unexpl |  Obj  Depth IntInf | Incumbent    BestBd   Gap | It/Node Time

     0     0 6.6762e+07    0  247          - 6.6762e+07      -     -    0s
     0     0 6.6893e+07    0  643          - 6.6893e+07      -     -    0s
H    0     0                    7.252874e+07 6.6924e+07  7.73%     -    0s
     0     0 6.7432e+07    0  686 7.2529e+07 6.7432e+07  7.03%     -    0s
     0     0 6.7432e+07    0  795 7.2529e+07 6.7432e+07  7.03%     -    0s
     0     0 6.7432e+07    0  817 7.2529e+07 6.7432e+07  7.03%     -    0s
     0     0 6.7432e+07    0  825 7.2529e+07 6.7432e+07  7.03%     -    0s
     0     0 6.8274e+07    0  931 7.2529e+07 6.8274e+07  5.87%     -    0s
H    0     0                    7.239131e+07 6.8274e+07  5.69%     -    0s
     0     0 6.8463e+07    0 1025 7.2391e+07 6.8463e+07  5.43%     -    0s
     0     0 6.8491e+07    0 1040 7.2391e+07 6.8491e+07  5.39%     -    0s
H    0     0                    7.238026e+07 6.8563e+07  5.27%     -    0s
H    0     0                    7.236626e+07 6.8563e+07  5.26%     -    0s
     0     0 6.8714e+07    0 1154 7.2366e+07 6.8714e+07  5.05%     -    0s
H    0     0                    7.127085e+07 6.8714e+07  3.59%     -    0s
     0     0 6.8778e+07    0 1143 7.1271e+07 6.8778e+07  3.50%     -    0s
H    0     0                    7.096902e+07 6.8778e+07  3.09%     -    0s
H    0     0                    7.043153e+07 6.8778e+07  2.35%     -    1s
     0     2 6.8778e+07    0 1141 7.0432e+07 6.8778e+07  2.35%     -    1s
H   34    38                    7.042692e+07 6.8778e+07  2.34%  1161    1s
H   82    56                    7.040794e+07 6.8778e+07  2.31%   785    2s
*  288    13               6    7.040708e+07 6.9135e+07  1.81%   592    3s

Cutting planes:
  Gomory: 4
  Implied bound: 1121
  MIR: 92
  Flow path: 1
  Inf proof: 1
  Relax-and-lift: 58

Explored 336 nodes (193634 simplex iterations) in 4.02 seconds (6.67 work units)
Thread count was 8 (of 8 available processors)

Solution count 10: 7.04071e+07 7.04079e+07 7.04269e+07 ... 7.25287e+07

Optimal solution found (tolerance 1.00e-04)
Best objective 7.040707899000e+07, best bound 7.040606892563e+07, gap 0.0014%
Discarded solution information

Gurobi 10.0.1 (mac64[arm]) logging started Sat Sep 23 18:37:51 2023

Set parameter LogFile to value "results/scenario_returns/returns_gamma/M_j_c_-50/mip_log.txt"
Gurobi Optimizer version 10.0.1 build v10.0.1rc0 (mac64[arm])

CPU model: Apple M1
Thread count: 8 physical cores, 8 logical processors, using up to 8 threads

Optimize a model with 1694 rows, 6293 columns and 24572 nonzeros
Model fingerprint: 0xeb00b423
Model has 8978 general constraints
Variable types: 1 continuous, 6292 integer (408 binary)
Coefficient statistics:
  Matrix range     [6e-02, 3e+05]
  Objective range  [9e-02, 2e+05]
  Bounds range     [1e+00, 2e+07]
  RHS range        [2e+03, 2e+04]
  GenCon rhs range [1e+00, 1e+00]
  GenCon coe range [1e+00, 1e+00]
Presolve removed 67 rows and 502 columns
Presolve time: 0.08s
Presolved: 1627 rows, 5791 columns, 23173 nonzeros
Presolved model has 4 SOS constraint(s)
Variable types: 0 continuous, 5791 integer (34 binary)

Root relaxation: objective 6.676189e+07, 6076 iterations, 0.05 seconds (0.07 work units)

    Nodes    |    Current Node    |     Objective Bounds      |     Work
 Expl Unexpl |  Obj  Depth IntInf | Incumbent    BestBd   Gap | It/Node Time

     0     0 6.6762e+07    0  247          - 6.6762e+07      -     -    0s
     0     0 6.6893e+07    0  643          - 6.6893e+07      -     -    0s
H    0     0                    7.252874e+07 6.6924e+07  7.73%     -    0s
     0     0 6.7432e+07    0  686 7.2529e+07 6.7432e+07  7.03%     -    0s
     0     0 6.7432e+07    0  795 7.2529e+07 6.7432e+07  7.03%     -    0s
     0     0 6.7432e+07    0  817 7.2529e+07 6.7432e+07  7.03%     -    0s
     0     0 6.7432e+07    0  825 7.2529e+07 6.7432e+07  7.03%     -    0s
     0     0 6.8274e+07    0  931 7.2529e+07 6.8274e+07  5.87%     -    0s
H    0     0                    7.239131e+07 6.8274e+07  5.69%     -    0s
     0     0 6.8463e+07    0 1025 7.2391e+07 6.8463e+07  5.43%     -    0s
     0     0 6.8491e+07    0 1040 7.2391e+07 6.8491e+07  5.39%     -    0s
H    0     0                    7.238026e+07 6.8563e+07  5.27%     -    0s
H    0     0                    7.236626e+07 6.8563e+07  5.26%     -    0s
     0     0 6.8714e+07    0 1154 7.2366e+07 6.8714e+07  5.05%     -    0s
H    0     0                    7.127085e+07 6.8714e+07  3.59%     -    0s
     0     0 6.8778e+07    0 1143 7.1271e+07 6.8778e+07  3.50%     -    0s
H    0     0                    7.096902e+07 6.8778e+07  3.09%     -    1s
H    0     0                    7.043153e+07 6.8778e+07  2.35%     -    1s
     0     2 6.8778e+07    0 1141 7.0432e+07 6.8778e+07  2.35%     -    1s
H   34    38                    7.042692e+07 6.8778e+07  2.34%  1161    1s
H   82    56                    7.040794e+07 6.8778e+07  2.31%   785    2s
*  288    13               6    7.040708e+07 6.9135e+07  1.81%   592    4s

Cutting planes:
  Gomory: 4
  Implied bound: 1121
  MIR: 92
  Flow path: 1
  Inf proof: 1
  Relax-and-lift: 58

Explored 336 nodes (193634 simplex iterations) in 4.07 seconds (6.67 work units)
Thread count was 8 (of 8 available processors)

Solution count 10: 7.04071e+07 7.04079e+07 7.04269e+07 ... 7.25287e+07

Optimal solution found (tolerance 1.00e-04)
Best objective 7.040707899000e+07, best bound 7.040606892563e+07, gap 0.0014%
Discarded solution information
